p cnf 200 1110
-101 -100 0
-101 86 0
-101 -73 0
-101 -63 0
-101 61 0
-101 -94 0
-101 35 0
-101 -11 0
-101 26 0
-101 -41 0
101 100 -86 73 63 -61 94 -35 11 -26 41 0
-102 27 0
-102 -97 0
-102 -58 0
-102 -6 0
-102 -35 0
-102 -29 0
-102 68 0
-102 16 0
-102 93 0
-102 -70 0
102 -27 97 58 6 35 29 -68 -16 -93 70 0
-103 -87 0
-103 68 0
-103 -81 0
-103 -75 0
-103 17 0
-103 55 0
-103 -92 0
-103 -15 0
-103 -86 0
-103 26 0
103 87 -68 81 75 -17 -55 92 15 86 -26 0
-104 -81 0
-104 86 0
-104 -72 0
-104 -43 0
-104 39 0
-104 -92 0
-104 22 0
-104 15 0
-104 -24 0
-104 -51 0
104 81 -86 72 43 -39 92 -22 -15 24 51 0
-105 -38 0
-105 -12 0
-105 9 0
-105 30 0
-105 -49 0
-105 74 0
-105 -96 0
-105 -21 0
-105 72 0
-105 3 0
105 38 12 -9 -30 49 -74 96 21 -72 -3 0
-106 64 0
-106 33 0
-106 18 0
-106 -40 0
-106 -6 0
-106 -91 0
-106 -10 0
-106 -79 0
-106 -87 0
-106 -98 0
106 -64 -33 -18 40 6 91 10 79 87 98 0
-107 -75 0
-107 -1 0
-107 34 0
-107 -99 0
-107 -100 0
-107 79 0
-107 96 0
-107 13 0
-107 -15 0
-107 50 0
107 75 1 -34 99 100 -79 -96 -13 15 -50 0
-108 -67 0
-108 -11 0
-108 -64 0
-108 65 0
-108 22 0
-108 -31 0
-108 -53 0
-108 27 0
-108 -37 0
-108 -34 0
108 67 11 64 -65 -22 31 53 -27 37 34 0
-109 -40 0
-109 87 0
-109 6 0
-109 4 0
-109 -26 0
-109 -42 0
-109 56 0
-109 70 0
-109 11 0
-109 81 0
109 40 -87 -6 -4 26 42 -56 -70 -11 -81 0
-110 93 0
-110 4 0
-110 -13 0
-110 37 0
-110 25 0
-110 -91 0
-110 -44 0
-110 -76 0
-110 36 0
-110 58 0
110 -93 -4 13 -37 -25 91 44 76 -36 -58 0
101 102 103 104 105 106 107 108 109 110 0
-111 3 0
-111 -32 0
-111 -20 0
-111 10 0
-111 -39 0
-111 -70 0
-111 94 0
-111 8 0
-111 81 0
-111 49 0
111 -3 32 20 -10 39 70 -94 -8 -81 -49 0
-112 59 0
-112 13 0
-112 94 0
-112 34 0
-112 -4 0
-112 19 0
-112 30 0
-112 36 0
-112 -99 0
-112 3 0
112 -59 -13 -94 -34 4 -19 -30 -36 99 -3 0
-113 51 0
-113 59 0
-113 -15 0
-113 -17 0
-113 13 0
-113 -6 0
-113 -28 0
-113 -99 0
-113 85 0
-113 3 0
113 -51 -59 15 17 -13 6 28 99 -85 -3 0
-114 5 0
-114 58 0
-114 60 0
-114 35 0
-114 63 0
-114 -26 0
-114 -27 0
-114 96 0
-114 1 0
-114 -72 0
114 -5 -58 -60 -35 -63 26 27 -96 -1 72 0
-115 10 0
-115 75 0
-115 72 0
-115 -59 0
-115 -86 0
-115 62 0
-115 57 0
-115 58 0
-115 61 0
-115 -44 0
115 -10 -75 -72 59 86 -62 -57 -58 -61 44 0
-116 -52 0
-116 82 0
-116 46 0
-116 -29 0
-116 89 0
-116 -77 0
-116 51 0
-116 -64 0
-116 -18 0
-116 47 0
116 52 -82 -46 29 -89 77 -51 64 18 -47 0
-117 -96 0
-117 -17 0
-117 25 0
-117 61 0
-117 -91 0
-117 75 0
-117 97 0
-117 -6 0
-117 15 0
-117 13 0
117 96 17 -25 -61 91 -75 -97 6 -15 -13 0
-118 -42 0
-118 -8 0
-118 4 0
-118 -18 0
-118 51 0
-118 -77 0
-118 -71 0
-118 -66 0
-118 -41 0
-118 -80 0
118 42 8 -4 18 -51 77 71 66 41 80 0
-119 11 0
-119 -56 0
-119 -55 0
-119 63 0
-119 21 0
-119 -92 0
-119 -49 0
-119 -28 0
-119 53 0
-119 -24 0
119 -11 56 55 -63 -21 92 49 28 -53 24 0
-120 -3 0
-120 -75 0
-120 19 0
-120 -69 0
-120 -73 0
-120 47 0
-120 26 0
-120 76 0
-120 30 0
-120 -22 0
120 3 75 -19 69 73 -47 -26 -76 -30 22 0
111 112 113 114 115 116 117 118 119 120 0
-121 54 0
-121 49 0
-121 5 0
-121 -27 0
-121 -12 0
-121 -37 0
-121 42 0
-121 58 0
-121 50 0
-121 62 0
121 -54 -49 -5 27 12 37 -42 -58 -50 -62 0
-122 3 0
-122 95 0
-122 78 0
-122 -47 0
-122 76 0
-122 94 0
-122 74 0
-122 -19 0
-122 53 0
-122 54 0
122 -3 -95 -78 47 -76 -94 -74 19 -53 -54 0
-123 62 0
-123 82 0
-123 -5 0
-123 38 0
-123 48 0
-123 74 0
-123 -71 0
-123 -36 0
-123 88 0
-123 -100 0
123 -62 -82 5 -38 -48 -74 71 36 -88 100 0
-124 17 0
-124 30 0
-124 -96 0
-124 -55 0
-124 -97 0
-124 59 0
-124 -95 0
-124 -69 0
-124 85 0
-124 -76 0
124 -17 -30 96 55 97 -59 95 69 -85 76 0
-125 -99 0
-125 -43 0
-125 -30 0
-125 -45 0
-125 -48 0
-125 -95 0
-125 65 0
-125 35 0
-125 32 0
-125 -89 0
125 99 43 30 45 48 95 -65 -35 -32 89 0
-126 -83 0
-126 -45 0
-126 3 0
-126 88 0
-126 6 0
-126 -92 0
-126 90 0
-126 -32 0
-126 23 0
-126 4 0
126 83 45 -3 -88 -6 92 -90 32 -23 -4 0
-127 94 0
-127 -99 0
-127 -21 0
-127 51 0
-127 -83 0
-127 34 0
-127 1 0
-127 59 0
-127 -2 0
-127 19 0
127 -94 99 21 -51 83 -34 -1 -59 2 -19 0
-128 65 0
-128 -90 0
-128 73 0
-128 -97 0
-128 27 0
-128 63 0
-128 -72 0
-128 93 0
-128 49 0
-128 -43 0
128 -65 90 -73 97 -27 -63 72 -93 -49 43 0
-129 -12 0
-129 -5 0
-129 63 0
-129 58 0
-129 -41 0
-129 85 0
-129 -14 0
-129 10 0
-129 61 0
-129 59 0
129 12 5 -63 -58 41 -85 14 -10 -61 -59 0
-130 -57 0
-130 56 0
-130 99 0
-130 60 0
-130 40 0
-130 -39 0
-130 59 0
-130 -90 0
-130 19 0
-130 -95 0
130 57 -56 -99 -60 -40 39 -59 90 -19 95 0
121 122 123 124 125 126 127 128 129 130 0
-131 -24 0
-131 11 0
-131 25 0
-131 87 0
-131 -88 0
-131 17 0
-131 -78 0
-131 -50 0
-131 -23 0
-131 97 0
131 24 -11 -25 -87 88 -17 78 50 23 -97 0
-132 88 0
-132 50 0
-132 -90 0
-132 -14 0
-132 6 0
-132 84 0
-132 -33 0
-132 -5 0
-132 37 0
-132 67 0
132 -88 -50 90 14 -6 -84 33 5 -37 -67 0
-133 -93 0
-133 83 0
-133 -6 0
-133 25 0
-133 35 0
-133 81 0
-133 17 0
-133 5 0
-133 64 0
-133 7 0
133 93 -83 6 -25 -35 -81 -17 -5 -64 -7 0
-134 69 0
-134 -97 0
-134 -10 0
-134 46 0
-134 -43 0
-134 99 0
-134 71 0
-134 91 0
-134 14 0
-134 -61 0
134 -69 97 10 -46 43 -99 -71 -91 -14 61 0
-135 82 0
-135 -45 0
-135 -14 0
-135 -54 0
-135 -74 0
-135 47 0
-135 -39 0
-135 28 0
-135 34 0
-135 40 0
135 -82 45 14 54 74 -47 39 -28 -34 -40 0
-136 56 0
-136 -21 0
-136 58 0
-136 -88 0
-136 -74 0
-136 -4 0
-136 18 0
-136 14 0
-136 32 0
-136 -63 0
136 -56 21 -58 88 74 4 -18 -14 -32 63 0
-137 99 0
-137 14 0
-137 -6 0
-137 48 0
-137 -35 0
-137 -86 0
-137 56 0
-137 70 0
-137 2 0
-137 -23 0
137 -99 -14 6 -48 35 86 -56 -70 -2 23 0
-138 46 0
-138 -47 0
-138 69 0
-138 -82 0
-138 -50 0
-138 -49 0
-138 -72 0
-138 13 0
-138 75 0
-138 -23 0
138 -46 47 -69 82 50 49 72 -13 -75 23 0
-139 5 0
-139 93 0
-139 -86 0
-139 -35 0
-139 -55 0
-139 91 0
-139 49 0
-139 6 0
-139 94 0
-139 -97 0
139 -5 -93 86 35 55 -91 -49 -6 -94 97 0
-140 -66 0
-140 -77 0
-140 75 0
-140 -99 0
-140 49 0
-140 -67 0
-140 -38 0
-140 -80 0
-140 -95 0
-140 -30 0
140 66 77 -75 99 -49 67 38 80 95 30 0
131 132 133 134 135 136 137 138 139 140 0
-141 61 0
-141 55 0
-141 84 0
-141 62 0
-141 88 0
-141 -90 0
-141 75 0
-141 -89 0
-141 -79 0
-141 -31 0
141 -61 -55 -84 -62 -88 90 -75 89 79 31 0
-142 -91 0
-142 27 0
-142 -39 0
-142 -43 0
-142 -97 0
-142 34 0
-142 6 0
-142 -87 0
-142 -48 0
-142 28 0
142 91 -27 39 43 97 -34 -6 87 48 -28 0
-143 -10 0
-143 89 0
-143 -69 0
-143 75 0
-143 -86 0
-143 42 0
-143 -91 0
-143 67 0
-143 74 0
-143 -62 0
143 10 -89 69 -75 86 -42 91 -67 -74 62 0
-144 2 0
-144 -81 0
-144 -60 0
-144 -5 0
-144 -73 0
-144 -75 0
-144 15 0
-144 87 0
-144 -93 0
-144 -48 0
144 -2 81 60 5 73 75 -15 -87 93 48 0
-145 -77 0
-145 -85 0
-145 30 0
-145 14 0
-145 -35 0
-145 72 0
-145 86 0
-145 87 0
-145 1 0
-145 -18 0
145 77 85 -30 -14 35 -72 -86 -87 -1 18 0
-146 83 0
-146 -87 0
-146 35 0
-146 36 0
-146 7 0
-146 -70 0
-146 89 0
-146 28 0
-146 -67 0
-146 -100 0
146 -83 87 -35 -36 -7 70 -89 -28 67 100 0
-147 64 0
-147 10 0
-147 51 0
-147 -98 0
-147 8 0
-147 81 0
-147 73 0
-147 -47 0
-147 23 0
-147 13 0
147 -64 -10 -51 98 -8 -81 -73 47 -23 -13 0
-148 91 0
-148 86 0
-148 44 0
-148 96 0
-148 7 0
-148 48 0
-148 71 0
-148 -38 0
-148 58 0
-148 52 0
148 -91 -86 -44 -96 -7 -48 -71 38 -58 -52 0
-149 -9 0
-149 -18 0
-149 -56 0
-149 -45 0
-149 -66 0
-149 -85 0
-149 20 0
-149 -88 0
-149 -84 0
-149 100 0
149 9 18 56 45 66 85 -20 88 84 -100 0
-150 -10 0
-150 20 0
-150 70 0
-150 -83 0
-150 -54 0
-150 67 0
-150 32 0
-150 -2 0
-150 79 0
-150 28 0
150 10 -20 -70 83 54 -67 -32 2 -79 -28 0
141 142 143 144 145 146 147 148 149 150 0
-151 -93 0
-151 8 0
-151 24 0
-151 -64 0
-151 -57 0
-151 -23 0
-151 4 0
-151 39 0
-151 -52 0
-151 11 0
151 93 -8 -24 64 57 23 -4 -39 52 -11 0
-152 -82 0
-152 98 0
-152 36 0
-152 17 0
-152 -60 0
-152 -67 0
-152 -71 0
-152 -72 0
-152 -97 0
-152 -24 0
152 82 -98 -36 -17 60 67 71 72 97 24 0
-153 26 0
-153 34 0
-153 92 0
-153 -1 0
-153 15 0
-153 16 0
-153 -69 0
-153 94 0
-153 -32 0
-153 -36 0
153 -26 -34 -92 1 -15 -16 69 -94 32 36 0
-154 -9 0
-154 -40 0
-154 56 0
-154 -42 0
-154 10 0
-154 -86 0
-154 38 0
-154 -46 0
-154 49 0
-154 77 0
154 9 40 -56 42 -10 86 -38 46 -49 -77 0
-155 -34 0
-155 -1 0
-155 -66 0
-155 78 0
-155 -53 0
-155 13 0
-155 89 0
-155 96 0
-155 30 0
-155 23 0
155 34 1 66 -78 53 -13 -89 -96 -30 -23 0
-156 -76 0
-156 44 0
-156 6 0
-156 96 0
-156 -1 0
-156 -75 0
-156 97 0
-156 -18 0
-156 86 0
-156 -56 0
156 76 -44 -6 -96 1 75 -97 18 -86 56 0
-157 79 0
-157 -22 0
-157 -84 0
-157 -41 0
-157 -55 0
-157 -90 0
-157 15 0
-157 -40 0
-157 92 0
-157 50 0
157 -79 22 84 41 55 90 -15 40 -92 -50 0
-158 50 0
-158 71 0
-158 12 0
-158 -8 0
-158 20 0
-158 29 0
-158 19 0
-158 17 0
-158 -83 0
-158 -49 0
158 -50 -71 -12 8 -20 -29 -19 -17 83 49 0
-159 62 0
-159 8 0
-159 14 0
-159 12 0
-159 -42 0
-159 -11 0
-159 -52 0
-159 -16 0
-159 -51 0
-159 91 0
159 -62 -8 -14 -12 42 11 52 16 51 -91 0
-160 65 0
-160 -94 0
-160 51 0
-160 70 0
-160 54 0
-160 -61 0
-160 -83 0
-160 24 0
-160 82 0
-160 5 0
160 -65 94 -51 -70 -54 61 83 -24 -82 -5 0
151 152 153 154 155 156 157 158 159 160 0
-161 45 0
-161 80 0
-161 -16 0
-161 -2 0
-161 -8 0
-161 -68 0
-161 -14 0
-161 -23 0
-161 66 0
-161 -92 0
161 -45 -80 16 2 8 68 14 23 -66 92 0
-162 35 0
-162 -83 0
-162 51 0
-162 -56 0
-162 2 0
-162 -60 0
-162 50 0
-162 -47 0
-162 -64 0
-162 -8 0
162 -35 83 -51 56 -2 60 -50 47 64 8 0
-163 -85 0
-163 -52 0
-163 48 0
-163 -41 0
-163 -44 0
-163 83 0
-163 -1 0
-163 10 0
-163 -5 0
-163 92 0
163 85 52 -48 41 44 -83 1 -10 5 -92 0
-164 21 0
-164 -13 0
-164 -50 0
-164 81 0
-164 74 0
-164 -37 0
-164 -36 0
-164 34 0
-164 41 0
-164 27 0
164 -21 13 50 -81 -74 37 36 -34 -41 -27 0
-165 -36 0
-165 86 0
-165 33 0
-165 2 0
-165 93 0
-165 -44 0
-165 -34 0
-165 -1 0
-165 19 0
-165 80 0
165 36 -86 -33 -2 -93 44 34 1 -19 -80 0
-166 96 0
-166 -25 0
-166 72 0
-166 49 0
-166 -62 0
-166 77 0
-166 34 0
-166 6 0
-166 37 0
-166 19 0
166 -96 25 -72 -49 62 -77 -34 -6 -37 -19 0
-167 -45 0
-167 -52 0
-167 -89 0
-167 70 0
-167 -44 0
-167 47 0
-167 92 0
-167 -96 0
-167 -61 0
-167 62 0
167 45 52 89 -70 44 -47 -92 96 61 -62 0
-168 -67 0
-168 66 0
-168 -90 0
-168 49 0
-168 -6 0
-168 69 0
-168 80 0
-168 -82 0
-168 -25 0
-168 61 0
168 67 -66 90 -49 6 -69 -80 82 25 -61 0
-169 1 0
-169 -47 0
-169 -26 0
-169 -41 0
-169 -99 0
-169 -64 0
-169 80 0
-169 72 0
-169 -73 0
-169 -63 0
169 -1 47 26 41 99 64 -80 -72 73 63 0
-170 -55 0
-170 -36 0
-170 31 0
-170 -21 0
-170 94 0
-170 70 0
-170 -58 0
-170 -87 0
-170 96 0
-170 86 0
170 55 36 -31 21 -94 -70 58 87 -96 -86 0
161 162 163 164 165 166 167 168 169 170 0
-171 28 0
-171 83 0
-171 -44 0
-171 74 0
-171 -71 0
-171 95 0
-171 68 0
-171 -88 0
-171 9 0
-171 -24 0
171 -28 -83 44 -74 71 -95 -68 88 -9 24 0
-172 -87 0
-172 33 0
-172 -18 0
-172 14 0
-172 -56 0
-172 45 0
-172 86 0
-172 -84 0
-172 89 0
-172 -13 0
172 87 -33 18 -14 56 -45 -86 84 -89 13 0
-173 -59 0
-173 72 0
-173 75 0
-173 77 0
-173 -50 0
-173 8 0
-173 -56 0
-173 -86 0
-173 -11 0
-173 65 0
173 59 -72 -75 -77 50 -8 56 86 11 -65 0
-174 -47 0
-174 95 0
-174 -15 0
-174 36 0
-174 43 0
-174 58 0
-174 87 0
-174 -74 0
-174 -37 0
-174 -78 0
174 47 -95 15 -36 -43 -58 -87 74 37 78 0
-175 -48 0
-175 25 0
-175 -97 0
-175 51 0
-175 -39 0
-175 19 0
-175 -86 0
-175 -27 0
-175 35 0
-175 23 0
175 48 -25 97 -51 39 -19 86 27 -35 -23 0
-176 16 0
-176 -5 0
-176 55 0
-176 21 0
-176 -42 0
-176 97 0
-176 39 0
-176 -52 0
-176 -62 0
-176 -33 0
176 -16 5 -55 -21 42 -97 -39 52 62 33 0
-177 -40 0
-177 -3 0
-177 -45 0
-177 -87 0
-177 75 0
-177 -98 0
-177 18 0
-177 50 0
-177 92 0
-177 84 0
177 40 3 45 87 -75 98 -18 -50 -92 -84 0
-178 -2 0
-178 47 0
-178 88 0
-178 -60 0
-178 42 0
-178 -98 0
-178 -36 0
-178 -21 0
-178 58 0
-178 -40 0
178 2 -47 -88 60 -42 98 36 21 -58 40 0
-179 49 0
-179 -48 0
-179 -81 0
-179 64 0
-179 -88 0
-179 99 0
-179 -20 0
-179 -25 0
-179 17 0
-179 -93 0
179 -49 48 81 -64 88 -99 20 25 -17 93 0
-180 -2 0
-180 -7 0
-180 26 0
-180 66 0
-180 -51 0
-180 67 0
-180 -55 0
-180 -10 0
-180 -35 0
-180 -89 0
180 2 7 -26 -66 51 -67 55 10 35 89 0
171 172 173 174 175 176 177 178 179 180 0
-181 16 0
-181 62 0
-181 32 0
-181 -50 0
-181 13 0
-181 -74 0
-181 92 0
-181 -77 0
-181 -97 0
-181 84 0
181 -16 -62 -32 50 -13 74 -92 77 97 -84 0
-182 84 0
-182 -46 0
-182 29 0
-182 -3 0
-182 -11 0
-182 -78 0
-182 62 0
-182 -16 0
-182 35 0
-182 -47 0
182 -84 46 -29 3 11 78 -62 16 -35 47 0
-183 1 0
-183 -80 0
-183 89 0
-183 34 0
-183 -61 0
-183 -28 0
-183 87 0
-183 86 0
-183 82 0
-183 -7 0
183 -1 80 -89 -34 61 28 -87 -86 -82 7 0
-184 15 0
-184 -47 0
-184 -10 0
-184 -20 0
-184 -95 0
-184 -71 0
-184 -96 0
-184 91 0
-184 -13 0
-184 5 0
184 -15 47 10 20 95 71 96 -91 13 -5 0
-185 -59 0
-185 -74 0
-185 -50 0
-185 -46 0
-185 45 0
-185 -41 0
-185 -64 0
-185 -9 0
-185 -86 0
-185 88 0
185 59 74 50 46 -45 41 64 9 86 -88 0
-186 -57 0
-186 -52 0
-186 -88 0
-186 -54 0
-186 -55 0
-186 7 0
-186 -42 0
-186 -61 0
-186 -28 0
-186 -22 0
186 57 52 88 54 55 -7 42 61 28 22 0
-187 -3 0
-187 34 0
-187 53 0
-187 -16 0
-187 -29 0
-187 4 0
-187 89 0
-187 -40 0
-187 -68 0
-187 9 0
187 3 -34 -53 16 29 -4 -89 40 68 -9 0
-188 -41 0
-188 4 0
-188 -14 0
-188 -46 0
-188 -18 0
-188 29 0
-188 -74 0
-188 -5 0
-188 95 0
-188 100 0
188 41 -4 14 46 18 -29 74 5 -95 -100 0
-189 76 0
-189 91 0
-189 -54 0
-189 53 0
-189 -88 0
-189 -93 0
-189 -24 0
-189 56 0
-189 72 0
-189 -80 0
189 -76 -91 54 -53 88 93 24 -56 -72 80 0
-190 79 0
-190 -69 0
-190 32 0
-190 -67 0
-190 46 0
-190 73 0
-190 -9 0
-190 -89 0
-190 21 0
-190 -80 0
190 -79 69 -32 67 -46 -73 9 89 -21 80 0
181 182 183 184 185 186 187 188 189 190 0
-191 -28 0
-191 32 0
-191 46 0
-191 79 0
-191 96 0
-191 10 0
-191 19 0
-191 -45 0
-191 29 0
-191 -87 0
191 28 -32 -46 -79 -96 -10 -19 45 -29 87 0
-192 -48 0
-192 94 0
-192 44 0
-192 -71 0
-192 86 0
-192 85 0
-192 -72 0
-192 -33 0
-192 -56 0
-192 12 0
192 48 -94 -44 71 -86 -85 72 33 56 -12 0
-193 62 0
-193 -53 0
-193 30 0
-193 -49 0
-193 -74 0
-193 41 0
-193 92 0
-193 40 0
-193 -24 0
-193 -98 0
193 -62 53 -30 49 74 -41 -92 -40 24 98 0
-194 -42 0
-194 -92 0
-194 -83 0
-194 -77 0
-194 71 0
-194 -31 0
-194 50 0
-194 -52 0
-194 -67 0
-194 -8 0
194 42 92 83 77 -71 31 -50 52 67 8 0
-195 7 0
-195 52 0
-195 86 0
-195 24 0
-195 69 0
-195 58 0
-195 17 0
-195 11 0
-195 -28 0
-195 48 0
195 -7 -52 -86 -24 -69 -58 -17 -11 28 -48 0
-196 -14 0
-196 -66 0
-196 29 0
-196 54 0
-196 -22 0
-196 -17 0
-196 40 0
-196 47 0
-196 23 0
-196 -63 0
196 14 66 -29 -54 22 17 -40 -47 -23 63 0
-197 60 0
-197 11 0
-197 36 0
-197 2 0
-197 19 0
-197 -21 0
-197 -42 0
-197 -62 0
-197 8 0
-197 96 0
197 -60 -11 -36 -2 -19 21 42 62 -8 -96 0
-198 26 0
-198 -87 0
-198 18 0
-198 95 0
-198 -47 0
-198 -5 0
-198 44 0
-198 10 0
-198 -42 0
-198 -37 0
198 -26 87 -18 -95 47 5 -44 -10 42 37 0
-199 20 0
-199 80 0
-199 10 0
-199 35 0
-199 38 0
-199 -13 0
-199 -43 0
-199 87 0
-199 -71 0
-199 59 0
199 -20 -80 -10 -35 -38 13 43 -87 71 -59 0
-200 89 0
-200 -90 0
-200 -80 0
-200 50 0
-200 -76 0
-200 72 0
-200 63 0
-200 58 0
-200 -47 0
-200 41 0
200 -89 90 80 -50 76 -72 -63 -58 47 -41 0
191 192 193 194 195 196 197 198 199 200 0
